\Generated by Cardinal Operations

Maximize
   238 x_1 + 287 x_2 + 268 x_3 + 318 x_4 + 207 x_5 + 258 x_6 + 249 x_7 
   + 227 x_8 + 198 x_9 + 254 x_10 + 246 x_11 + 258 x_12 + 268 x_13 
   + 278 x_14 + 268 x_15 + 298 x_16 + 258 x_17 + 315 x_18 + 264 x_19 
   + 238 x_20 + 258 x_21 + 268 x_22 + 288 x_23 + 228 x_24 
Subject To
 inventory_constraint: x_1 <= 30
 x_2 <= 20
 x_3 <= 80
 x_4 <= 70
 x_5 <= 20
 x_6 <= 160
 x_7 <= 40
 x_8 <= 10
 x_9 <= 50
 x_10 <= 40
 x_11 <= 90
 x_12 <= 10
 x_13 <= 20
 x_14 <= 40
 x_15 <= 10
 x_16 <= 990
 x_17 <= 160
 x_18 <= 90
 x_19 <= 2870
 x_20 <= 30
 x_21 <= 130
 x_22 <= 30
 x_23 <= 170
 x_24 <= 170
 demand_constraint: x_1 <= 6
 x_2 <= 4
 x_3 <= 16
 x_4 <= 14
 x_5 <= 4
 x_6 <= 32
 x_7 <= 8
 x_8 <= 2
 x_9 <= 10
 x_10 <= 8
 x_11 <= 18
 x_12 <= 2
 x_13 <= 4
 x_14 <= 8
 x_15 <= 2
 x_16 <= 198
 x_17 <= 32
 x_18 <= 18
 x_19 <= 570
 x_20 <= 6
 x_21 <= 26
 x_22 <= 6
 x_23 <= 33
 x_24 <= 33
Generals
 x_1  x_2  x_3  x_4  x_5  x_6  x_7  x_8  x_9  x_10  x_11  x_12  x_13  x_14  
 x_15  x_16  x_17  x_18  x_19  x_20  x_21  x_22  x_23  x_24  
END

